100
100
80
79
78
77
76
75
74
73
72
72
70
70
69
69
68
68
67
67
67
67
66
66
65
65
65
65
62
62
61
61
61
60
60
59
58
58
57
56
55
54
52
52
52
51
51
50
50
48
48
47
47
46
45
45
44
44
43
43
43
43
42
42
42
42
41
41
39
38
38
37
36
35
35
35
35
34
32
32
30
30
28
27
26
26
24
24
23
23
22
22
21
21
19
18
16
16
15
13
12
11
